\ LP format - for model browsing. Use MPS format to capture full model detail.
Minimize
  0 B18(0) + 0 B24(0) + 0 B28(0) + 0 B38(0) + 0 B45(0) + 0 B46(0) + 0 B47(0)
   + 0 B48(0) + 0 B51(0) + 0 B54(0) + 0 B55(0) + 0 B56(0) + 0 B58(0)
   + 0 B63(0) + 0 B64(0) + 0 B65(0) + 0 B68(0) + 0 B72(0) + 0 B73(0)
   + 0 B74(0) + 0 B75(0) + 0 B76(0) + 0 B77(0) + 0 B78(0) + 0 B79(0)
   + 0 B81(0) + 0 B82(0) + 0 B83(0) + 0 B84(0) + 0 B85(0) + 0 B86(0)
   + 0 B87(0) + 0 B88(0) + 0 B90(0) + 0 B91(0) + 0 B92(0) + 0 B93(0)
   + 0 B94(0) + 0 B95(0) + 0 B98(0) + I117(1)
Subject To
 c0: B0(14) + B1(16) = 1
 c1: B2(15) + B3(15) = 1
 c2: B4(16) + B5(14) = 1
 c3: B6(14) + B7(16) = 1
 c4: B8(16) + B9(14) = 1
 c5: B10(16) + B11(16) = 1
 c6: B12(3) + B13(15) = 1
 c7: B14(12) + B15(16) = 1
 c8: B16(16) + B17(16) = 1
 c9: - 1e+06 B0(14) + C99(16) <= 0
 c10: - 1e+06 B1(16) + C100(18) <= 0
 c11: - 1e+06 B2(15) + C101(16) <= 0
 c12: - 1e+06 B3(15) + C102(16) <= 0
 c13: - 1e+06 B4(16) + C103(16) <= 0
 c14: - 1e+06 B5(14) + C104(14) <= 0
 c15: - 1e+06 B6(14) + C105(15) <= 0
 c16: - 1e+06 B7(16) + C106(17) <= 0
 c17: - 1e+06 B8(16) + C107(17) <= 0
 c18: - 1e+06 B9(14) + C108(15) <= 0
 c19: - 1e+06 B10(16) + C109(16) <= 0
 c20: - 1e+06 B11(16) + C110(16) <= 0
 c21: - 1e+06 B12(3) + C111(5) <= 0
 c22: - 1e+06 B13(15) + C112(17) <= 0
 c23: - 1e+06 B14(12) + C113(12) <= 0
 c24: - 1e+06 B15(16) + C114(16) <= 0
 c25: - 1e+06 B16(16) + C115(17) <= 0
 c26: - 1e+06 B17(16) + C116(17) <= 0
 c27: - 1e+06 B1(16) - 1e+06 B3(15) - 1e+06 B19(2) + C100(18) - C102(16)
   >= -2.999976e+06
 c28: - 1e+06 B1(16) - 1e+06 B3(15) + 1e+06 B19(2) - C100(18) + C102(16)
   >= -1.999992e+06
 c29: - 1e+06 B0(14) - 1e+06 B5(14) - 1e+06 B20(2) + C99(16) - C104(14)
   >= -2.999983e+06
 c30: - 1e+06 B0(14) - 1e+06 B5(14) + 1e+06 B20(2) - C99(16) + C104(14)
   >= -1.999992e+06
 c31: - 1e+06 B0(14) - 1e+06 B6(14) - 1e+06 B21(4) + C99(16) - C105(15)
   >= -2.99998e+06
 c32: - 1e+06 B0(14) - 1e+06 B6(14) + 1e+06 B21(4) - C99(16) + C105(15)
   >= -1.999973e+06
 c33: - 1e+06 B1(16) - 1e+06 B7(16) - 1e+06 B21(4) + C100(18) - C106(17)
   >= -2.999994e+06
 c34: - 1e+06 B1(16) - 1e+06 B7(16) + 1e+06 B21(4) - C100(18) + C106(17)
   >= -1.999996e+06
 c35: - 1e+06 B0(14) - 1e+06 B9(14) - 1e+06 B22(2) + C99(16) - C108(15)
   >= -2.999991e+06
 c36: - 1e+06 B0(14) - 1e+06 B9(14) + 1e+06 B22(2) - C99(16) + C108(15)
   >= -1.999983e+06
 c37: - 1e+06 B1(16) - 1e+06 B11(16) - 1e+06 B23(2) + C100(18) - C110(16)
   >= -2.999984e+06
 c38: - 1e+06 B1(16) - 1e+06 B11(16) + 1e+06 B23(2) - C100(18) + C110(16)
   >= -1.999994e+06
 c39: - 1e+06 B0(14) - 1e+06 B14(12) - 1e+06 B25(4) + C99(16) - C113(12)
   >= -2.99999e+06
 c40: - 1e+06 B0(14) - 1e+06 B14(12) + 1e+06 B25(4) - C99(16) + C113(12)
   >= -1.999978e+06
 c41: - 1e+06 B1(16) - 1e+06 B15(16) - 1e+06 B25(4) + C100(18) - C114(16)
   >= -2.999992e+06
 c42: - 1e+06 B1(16) - 1e+06 B15(16) + 1e+06 B25(4) - C100(18) + C114(16)
   >= -1.999994e+06
 c43: - 1e+06 B1(16) - 1e+06 B17(16) - 1e+06 B26(2) + C100(18) - C116(17)
   >= -2.999975e+06
 c44: - 1e+06 B1(16) - 1e+06 B17(16) + 1e+06 B26(2) - C100(18) + C116(17)
   >= -1.999983e+06
 c45: - 1e+06 B1(16) - 1e+06 B3(15) - 1e+06 B27(2) - C100(18) + C102(16)
   >= -2.999992e+06
 c46: - 1e+06 B1(16) - 1e+06 B3(15) + 1e+06 B27(2) + C100(18) - C102(16)
   >= -1.999976e+06
 c47: - 1e+06 B2(15) - 1e+06 B4(16) - 1e+06 B29(2) + C101(16) - C103(16)
   >= -2.999986e+06
 c48: - 1e+06 B2(15) - 1e+06 B4(16) + 1e+06 B29(2) - C101(16) + C103(16)
   >= -1.999986e+06
 c49: - 1e+06 B3(15) - 1e+06 B7(16) - 1e+06 B30(2) + C102(16) - C106(17)
   >= -2.99999e+06
 c50: - 1e+06 B3(15) - 1e+06 B7(16) + 1e+06 B30(2) - C102(16) + C106(17)
   >= -1.999987e+06
 c51: - 1e+06 B2(15) - 1e+06 B8(16) - 1e+06 B31(2) + C101(16) - C107(17)
   >= -2.999992e+06
 c52: - 1e+06 B2(15) - 1e+06 B8(16) + 1e+06 B31(2) - C101(16) + C107(17)
   >= -1.999989e+06
 c53: - 1e+06 B2(15) - 1e+06 B10(16) - 1e+06 B32(4) + C101(16) - C109(16)
   >= -2.999991e+06
 c54: - 1e+06 B2(15) - 1e+06 B10(16) + 1e+06 B32(4) - C101(16) + C109(16)
   >= -1.999991e+06
 c55: - 1e+06 B3(15) - 1e+06 B11(16) - 1e+06 B32(4) + C102(16) - C110(16)
   >= -2.99999e+06
 c56: - 1e+06 B3(15) - 1e+06 B11(16) + 1e+06 B32(4) - C102(16) + C110(16)
   >= -1.999988e+06
 c57: - 1e+06 B2(15) - 1e+06 B13(15) - 1e+06 B33(2) + C101(16) - C112(17)
   >= -2.999992e+06
 c58: - 1e+06 B2(15) - 1e+06 B13(15) + 1e+06 B33(2) - C101(16) + C112(17)
   >= -1.999992e+06
 c59: - 1e+06 B3(15) - 1e+06 B15(16) - 1e+06 B34(2) + C102(16) - C114(16)
   >= -2.999986e+06
 c60: - 1e+06 B3(15) - 1e+06 B15(16) + 1e+06 B34(2) - C102(16) + C114(16)
   >= -1.999992e+06
 c61: - 1e+06 B2(15) - 1e+06 B16(16) - 1e+06 B35(4) + C101(16) - C115(17)
   >= -2.999988e+06
 c62: - 1e+06 B2(15) - 1e+06 B16(16) + 1e+06 B35(4) - C101(16) + C115(17)
   >= -1.99999e+06
 c63: - 1e+06 B3(15) - 1e+06 B17(16) - 1e+06 B35(4) + C102(16) - C116(17)
   >= -2.99999e+06
 c64: - 1e+06 B3(15) - 1e+06 B17(16) + 1e+06 B35(4) - C102(16) + C116(17)
   >= -1.999976e+06
 c65: - 1e+06 B0(14) - 1e+06 B5(14) - 1e+06 B36(2) - C99(16) + C104(14)
   >= -2.999992e+06
 c66: - 1e+06 B0(14) - 1e+06 B5(14) + 1e+06 B36(2) + C99(16) - C104(14)
   >= -1.999983e+06
 c67: - 1e+06 B2(15) - 1e+06 B4(16) - 1e+06 B37(2) - C101(16) + C103(16)
   >= -2.999986e+06
 c68: - 1e+06 B2(15) - 1e+06 B4(16) + 1e+06 B37(2) + C101(16) - C103(16)
   >= -1.999986e+06
 c69: - 1e+06 B5(14) - 1e+06 B6(14) - 1e+06 B39(2) + C104(14) - C105(15)
   >= -2.999993e+06
 c70: - 1e+06 B5(14) - 1e+06 B6(14) + 1e+06 B39(2) - C104(14) + C105(15)
   >= -1.999992e+06
 c71: - 1e+06 B4(16) - 1e+06 B8(16) - 1e+06 B40(4) + C103(16) - C107(17)
   >= -2.999987e+06
 c72: - 1e+06 B4(16) - 1e+06 B8(16) + 1e+06 B40(4) - C103(16) + C107(17)
   >= -1.99999e+06
 c73: - 1e+06 B5(14) - 1e+06 B9(14) - 1e+06 B40(4) + C104(14) - C108(15)
   >= -2.999989e+06
 c74: - 1e+06 B5(14) - 1e+06 B9(14) + 1e+06 B40(4) - C104(14) + C108(15)
   >= -1.999982e+06
 c75: - 1e+06 B4(16) - 1e+06 B10(16) - 1e+06 B41(2) + C103(16) - C109(16)
   >= -2.999983e+06
 c76: - 1e+06 B4(16) - 1e+06 B10(16) + 1e+06 B41(2) - C103(16) + C109(16)
   >= -1.99999e+06
 c77: - 1e+06 B4(16) - 1e+06 B13(15) - 1e+06 B42(2) + C103(16) - C112(17)
   >= -2.999978e+06
 c78: - 1e+06 B4(16) - 1e+06 B13(15) + 1e+06 B42(2) - C103(16) + C112(17)
   >= -1.999992e+06
 c79: - 1e+06 B5(14) - 1e+06 B14(12) - 1e+06 B43(2) + C104(14) - C113(12)
   >= -2.999992e+06
 c80: - 1e+06 B5(14) - 1e+06 B14(12) + 1e+06 B43(2) - C104(14) + C113(12)
   >= -1.999995e+06
 c81: - 1e+06 B4(16) - 1e+06 B16(16) - 1e+06 B44(2) + C103(16) - C115(17)
   >= -2.999986e+06
 c82: - 1e+06 B4(16) - 1e+06 B16(16) + 1e+06 B44(2) - C103(16) + C115(17)
   >= -1.999987e+06
 c83: - 1e+06 B6(14) - 1e+06 B9(14) - 1e+06 B49(2) + C105(15) - C108(15)
   >= -2.999991e+06
 c84: - 1e+06 B6(14) - 1e+06 B9(14) + 1e+06 B49(2) - C105(15) + C108(15)
   >= -1.999987e+06
 c85: - 1e+06 B7(16) - 1e+06 B11(16) - 1e+06 B50(2) + C106(17) - C110(16)
   >= -2.999991e+06
 c86: - 1e+06 B7(16) - 1e+06 B11(16) + 1e+06 B50(2) - C106(17) + C110(16)
   >= -1.99999e+06
 c87: - 1e+06 B6(14) - 1e+06 B14(12) - 1e+06 B52(4) + C105(15) - C113(12)
   >= -2.999978e+06
 c88: - 1e+06 B6(14) - 1e+06 B14(12) + 1e+06 B52(4) - C105(15) + C113(12)
   >= -1.999993e+06
 c89: - 1e+06 B7(16) - 1e+06 B15(16) - 1e+06 B52(4) + C106(17) - C114(16)
   >= -2.99997e+06
 c90: - 1e+06 B7(16) - 1e+06 B15(16) + 1e+06 B52(4) - C106(17) + C114(16)
   >= -1.99999e+06
 c91: - 1e+06 B7(16) - 1e+06 B17(16) - 1e+06 B53(2) + C106(17) - C116(17)
   >= -2.999987e+06
 c92: - 1e+06 B7(16) - 1e+06 B17(16) + 1e+06 B53(2) - C106(17) + C116(17)
   >= -1.999991e+06
 c93: - 1e+06 B6(14) - 1e+06 B9(14) - 1e+06 B57(2) - C105(15) + C108(15)
   >= -2.999987e+06
 c94: - 1e+06 B6(14) - 1e+06 B9(14) + 1e+06 B57(2) + C105(15) - C108(15)
   >= -1.999991e+06
 c95: - 1e+06 B8(16) - 1e+06 B10(16) - 1e+06 B59(2) + C107(17) - C109(16)
   >= -2.999991e+06
 c96: - 1e+06 B8(16) - 1e+06 B10(16) + 1e+06 B59(2) - C107(17) + C109(16)
   >= -1.999992e+06
 c97: - 1e+06 B8(16) - 1e+06 B13(15) - 1e+06 B60(2) + C107(17) - C112(17)
   >= -2.999992e+06
 c98: - 1e+06 B8(16) - 1e+06 B13(15) + 1e+06 B60(2) - C107(17) + C112(17)
   >= -1.999995e+06
 c99: - 1e+06 B9(14) - 1e+06 B14(12) - 1e+06 B61(2) + C108(15) - C113(12)
   >= -2.999993e+06
 c100: - 1e+06 B9(14) - 1e+06 B14(12) + 1e+06 B61(2) - C108(15) + C113(12)
   >= -1.999983e+06
 c101: - 1e+06 B8(16) - 1e+06 B16(16) - 1e+06 B62(2) + C107(17) - C115(17)
   >= -2.999986e+06
 c102: - 1e+06 B8(16) - 1e+06 B16(16) + 1e+06 B62(2) - C107(17) + C115(17)
   >= -1.999985e+06
 c103: - 1e+06 B7(16) - 1e+06 B11(16) - 1e+06 B66(2) - C106(17) + C110(16)
   >= -2.99999e+06
 c104: - 1e+06 B7(16) - 1e+06 B11(16) + 1e+06 B66(2) + C106(17) - C110(16)
   >= -1.999991e+06
 c105: - 1e+06 B8(16) - 1e+06 B10(16) - 1e+06 B67(2) - C107(17) + C109(16)
   >= -2.999992e+06
 c106: - 1e+06 B8(16) - 1e+06 B10(16) + 1e+06 B67(2) + C107(17) - C109(16)
   >= -1.999991e+06
 c107: - 1e+06 B10(16) - 1e+06 B13(15) - 1e+06 B69(2) + C109(16) - C112(17)
   >= -2.999982e+06
 c108: - 1e+06 B10(16) - 1e+06 B13(15) + 1e+06 B69(2) - C109(16) + C112(17)
   >= -1.99998e+06
 c109: - 1e+06 B11(16) - 1e+06 B15(16) - 1e+06 B70(2) + C110(16) - C114(16)
   >= -2.99997e+06
 c110: - 1e+06 B11(16) - 1e+06 B15(16) + 1e+06 B70(2) - C110(16) + C114(16)
   >= -1.999987e+06
 c111: - 1e+06 B10(16) - 1e+06 B16(16) - 1e+06 B71(4) + C109(16) - C115(17)
   >= -2.999988e+06
 c112: - 1e+06 B10(16) - 1e+06 B16(16) + 1e+06 B71(4) - C109(16) + C115(17)
   >= -1.999985e+06
 c113: - 1e+06 B11(16) - 1e+06 B17(16) - 1e+06 B71(4) + C110(16) - C116(17)
   >= -2.999991e+06
 c114: - 1e+06 B11(16) - 1e+06 B17(16) + 1e+06 B71(4) - C110(16) + C116(17)
   >= -1.999988e+06
 c115: - 1e+06 B13(15) - 1e+06 B16(16) - 1e+06 B80(2) + C112(17) - C115(17)
   >= -2.999978e+06
 c116: - 1e+06 B13(15) - 1e+06 B16(16) + 1e+06 B80(2) - C112(17) + C115(17)
   >= -1.999983e+06
 c117: - 1e+06 B15(16) - 1e+06 B17(16) - 1e+06 B89(2) + C114(16) - C116(17)
   >= -2.999989e+06
 c118: - 1e+06 B15(16) - 1e+06 B17(16) + 1e+06 B89(2) - C114(16) + C116(17)
   >= -1.999986e+06
 c119: - 1e+06 B13(15) - 1e+06 B16(16) - 1e+06 B96(2) - C112(17) + C115(17)
   >= -2.999983e+06
 c120: - 1e+06 B13(15) - 1e+06 B16(16) + 1e+06 B96(2) + C112(17) - C115(17)
   >= -1.999978e+06
 c121: - 1e+06 B15(16) - 1e+06 B17(16) - 1e+06 B97(2) - C114(16) + C116(17)
   >= -2.999986e+06
 c122: - 1e+06 B15(16) - 1e+06 B17(16) + 1e+06 B97(2) + C114(16) - C116(17)
   >= -1.999989e+06
 c123: C99(16) >= 0
 c124: - B0(14) + C99(16) >= 0
 c125: C100(18) >= 0
 c126: - B1(16) + C100(18) >= 0
 c127: C101(16) >= 0
 c128: C101(16) >= 0
 c129: C102(16) >= 0
 c130: C102(16) >= 0
 c131: C103(16) >= 0
 c132: - B4(16) + C103(16) >= 0
 c133: C104(14) >= 0
 c134: - B5(14) + C104(14) >= 0
 c135: C105(15) >= 0
 c136: - 2 B6(14) + C105(15) >= 0
 c137: C106(17) >= 0
 c138: - 2 B7(16) + C106(17) >= 0
 c139: C107(17) >= 0
 c140: - 2 B8(16) + C107(17) >= 0
 c141: C108(15) >= 0
 c142: - 2 B9(14) + C108(15) >= 0
 c143: C109(16) >= 0
 c144: - B10(16) + C109(16) >= 0
 c145: C110(16) >= 0
 c146: - B11(16) + C110(16) >= 0
 c147: C111(5) >= 0
 c148: C111(5) >= 0
 c149: C112(17) >= 0
 c150: C112(17) >= 0
 c151: C113(12) >= 0
 c152: - 3 B14(12) + C113(12) >= 0
 c153: C114(16) >= 0
 c154: - 3 B15(16) + C114(16) >= 0
 c155: C115(17) >= 0
 c156: - 3 B16(16) + C115(17) >= 0
 c157: C116(17) >= 0
 c158: - 3 B17(16) + C116(17) >= 0
 c159: - 5 B2(15) - 4 B3(15) + C99(16) + C100(18) - C101(16) - C102(16)
   >= 0
 c160: - 4 B4(16) - 2 B5(14) + C99(16) + C100(18) - C103(16) - C104(14)
   >= 0
 c161: - 3 B8(16) - 5 B9(14) + C105(15) + C106(17) - C107(17) - C108(15)
   >= 0
 c162: - 5 B10(16) - 4 B11(16) + C107(17) + C108(15) - C109(16) - C110(16)
   >= 0
 c163: - 2 B14(12) - 5 B15(16) - C113(12) - C114(16) + C115(17) + C116(17)
   >= 0
 c164: - 2 B16(16) - 5 B17(16) + C111(5) + C112(17) - C115(17) - C116(17)
   >= 0
 c165: - 2 B0(14) - 2 B1(16) - 5 B6(14) - 4 B7(16) - 2 B12(3) - 2 B13(15)
   - C99(16) - C100(18) - C105(15) - C106(17) - C111(5) - C112(17)
   + I117(1) >= 0
Bounds
Binaries
 B0(14) B1(16) B2(15) B3(15) B4(16) B5(14) B6(14) B7(16) B8(16) B9(14)
 B10(16) B11(16) B12(3) B13(15) B14(12) B15(16) B16(16) B17(16) B18(0)
 B19(2) B20(2) B21(4) B22(2) B23(2) B24(0) B25(4) B26(2) B27(2) B28(0)
 B29(2) B30(2) B31(2) B32(4) B33(2) B34(2) B35(4) B36(2) B37(2) B38(0)
 B39(2) B40(4) B41(2) B42(2) B43(2) B44(2) B45(0) B46(0) B47(0) B48(0)
 B49(2) B50(2) B51(0) B52(4) B53(2) B54(0) B55(0) B56(0) B57(2) B58(0)
 B59(2) B60(2) B61(2) B62(2) B63(0) B64(0) B65(0) B66(2) B67(2) B68(0)
 B69(2) B70(2) B71(4) B72(0) B73(0) B74(0) B75(0) B76(0) B77(0) B78(0)
 B79(0) B80(2) B81(0) B82(0) B83(0) B84(0) B85(0) B86(0) B87(0) B88(0)
 B89(2) B90(0) B91(0) B92(0) B93(0) B94(0) B95(0) B96(2) B97(2) B98(0)
Generals
 I117(1)
End
